p cnf 660 1753
a 1 2 3 4 5 6 7 8 9 10 11 12 13 14 15 16 17 18 19 20 21 22 23 24 25 26 27 28 29 30 31 32 33 34 35 36 37 38 39 40 41 42 43 44 45 46 47 48 49 50 51 52 53 54 55 56 57 58 59 60 61 62 63 64 0
e 65 66 67 68 69 70 71 72 73 74 75 76 77 78 79 80 81 82 83 84 85 86 87 88 89 90 91 92 93 94 95 96 97 98 99 100 101 102 103 104 105 106 107 108 109 110 111 112 113 114 115 116 117 118 119 120 121 122 123 124 125 126 127 128 129 130 131 132 133 134 135 136 137 138 139 140 141 142 143 144 145 146 147 148 149 150 151 152 153 154 155 156 157 158 159 160 161 162 163 164 165 166 167 168 169 170 171 172 173 174 175 176 177 178 179 180 181 182 183 184 185 186 187 188 189 190 191 192 193 194 195 196 197 198 199 200 201 202 203 204 205 206 207 208 209 210 211 212 213 214 215 216 217 218 219 220 221 222 223 224 225 226 227 228 229 230 231 232 233 234 235 236 237 238 239 240 241 242 243 244 245 246 247 248 249 250 251 252 253 254 255 256 257 258 259 260 261 262 263 264 265 266 267 268 269 270 271 272 273 274 275 276 277 278 279 280 281 282 283 284 285 286 287 288 289 290 291 292 293 294 295 296 297 298 299 300 301 302 303 304 305 306 307 308 309 310 311 312 313 314 315 316 317 318 319 320 321 322 323 324 325 326 327 328 329 330 331 332 333 334 335 336 337 338 339 340 341 342 343 344 345 346 347 348 349 350 351 352 353 354 355 356 357 358 359 360 361 362 363 364 365 366 367 368 369 370 371 372 373 374 375 376 377 378 379 380 381 382 383 384 385 386 387 388 389 390 391 392 393 394 395 396 397 398 399 400 401 402 403 404 405 406 407 408 409 410 411 412 413 414 415 416 417 418 419 420 421 422 423 424 425 426 427 428 429 430 431 432 433 434 435 436 437 438 439 440 441 442 443 444 445 446 447 448 449 450 451 452 453 454 455 456 457 458 459 460 461 462 463 464 465 466 467 468 469 470 471 472 473 474 475 476 477 478 479 480 481 482 483 484 485 486 487 488 489 490 491 492 493 494 495 496 497 498 499 500 501 502 503 504 505 506 507 508 509 510 511 512 513 514 515 516 517 518 519 520 521 522 523 524 525 526 527 528 529 530 531 532 533 534 535 536 537 538 539 540 541 542 543 544 545 546 547 548 549 550 551 552 553 554 555 556 557 558 559 560 561 562 563 564 565 566 567 568 569 570 571 572 573 574 575 576 577 578 579 580 581 582 583 584 585 586 587 588 589 590 591 592 593 594 595 596 597 598 599 600 601 602 603 604 605 606 607 608 609 610 611 612 613 614 615 616 617 618 619 620 621 622 623 624 625 626 627 628 629 630 631 632 633 634 635 636 637 638 639 640 641 642 643 644 645 646 647 648 649 650 651 652 653 654 655 656 657 658 0
81 65 0
-81 -65 0
82 66 -81 0
-82 81 0
-82 -66 0
83 -82 0
-83 82 0
84 67 -83 0
-84 83 0
-84 -67 0
85 -84 0
-85 84 0
86 68 -85 0
-86 85 0
-86 -68 0
87 -86 0
-87 86 0
88 69 -87 0
-88 87 0
-88 -69 0
89 -88 0
-89 88 0
90 70 -89 0
-90 89 0
-90 -70 0
91 -90 0
-91 90 0
92 71 -91 0
-92 91 0
-92 -71 0
93 -92 0
-93 92 0
94 72 -93 0
-94 93 0
-94 -72 0
95 -94 0
-95 94 0
96 73 -95 0
-96 95 0
-96 -73 0
97 -96 0
-97 96 0
98 74 -97 0
-98 97 0
-98 -74 0
99 -98 0
-99 98 0
100 75 -99 0
-100 99 0
-100 -75 0
101 -100 0
-101 100 0
102 76 -101 0
-102 101 0
-102 -76 0
103 -102 0
-103 102 0
104 77 -103 0
-104 103 0
-104 -77 0
105 -104 0
-105 104 0
106 78 -105 0
-106 105 0
-106 -78 0
107 -106 0
-107 106 0
108 79 -107 0
-108 107 0
-108 -79 0
109 -108 0
-109 108 0
110 80 -109 0
-110 109 0
-110 -80 0
111 -110 0
-111 110 0
112 -80 -111 0
112 80 111 0
-112 -80 111 0
-112 80 -111 0
114 0
-114 -112 -113 0
131 115 0
-131 -115 0
132 116 -131 0
-132 131 0
-132 -116 0
133 -132 0
-133 132 0
134 117 -133 0
-134 133 0
-134 -117 0
135 -134 0
-135 134 0
136 118 -135 0
-136 135 0
-136 -118 0
137 -136 0
-137 136 0
138 119 -137 0
-138 137 0
-138 -119 0
139 -138 0
-139 138 0
140 120 -139 0
-140 139 0
-140 -120 0
141 -140 0
-141 140 0
142 121 -141 0
-142 141 0
-142 -121 0
143 -142 0
-143 142 0
144 122 -143 0
-144 143 0
-144 -122 0
145 -144 0
-145 144 0
146 123 -145 0
-146 145 0
-146 -123 0
147 -146 0
-147 146 0
148 124 -147 0
-148 147 0
-148 -124 0
149 -148 0
-149 148 0
150 125 -149 0
-150 149 0
-150 -125 0
151 -150 0
-151 150 0
152 126 -151 0
-152 151 0
-152 -126 0
153 -152 0
-153 152 0
154 127 -153 0
-154 153 0
-154 -127 0
155 -154 0
-155 154 0
156 128 -155 0
-156 155 0
-156 -128 0
157 -156 0
-157 156 0
158 129 -157 0
-158 157 0
-158 -129 0
159 -158 0
-159 158 0
160 130 -159 0
-160 159 0
-160 -130 0
161 -160 0
-161 160 0
162 -130 -161 0
162 130 161 0
-162 -130 161 0
-162 130 -161 0
164 0
-164 -162 -163 0
165 -65 0
-165 65 0
166 -66 -165 0
166 66 165 0
-166 -66 165 0
-166 66 -165 0
167 -66 -165 0
-167 165 0
-167 66 0
168 -165 0
168 -167 0
168 -66 0
-168 66 165 167 0
169 -67 -168 0
169 67 168 0
-169 -67 168 0
-169 67 -168 0
170 -67 -168 0
-170 168 0
-170 67 0
171 -168 0
171 -170 0
171 -67 0
-171 67 168 170 0
172 -68 -171 0
172 68 171 0
-172 -68 171 0
-172 68 -171 0
173 -68 -171 0
-173 171 0
-173 68 0
174 -171 0
174 -173 0
174 -68 0
-174 68 171 173 0
175 -69 -174 0
175 69 174 0
-175 -69 174 0
-175 69 -174 0
176 -69 -174 0
-176 174 0
-176 69 0
177 -174 0
177 -176 0
177 -69 0
-177 69 174 176 0
178 -70 -177 0
178 70 177 0
-178 -70 177 0
-178 70 -177 0
179 -70 -177 0
-179 177 0
-179 70 0
180 -177 0
180 -179 0
180 -70 0
-180 70 177 179 0
181 -71 -180 0
181 71 180 0
-181 -71 180 0
-181 71 -180 0
182 -71 -180 0
-182 180 0
-182 71 0
183 -180 0
183 -182 0
183 -71 0
-183 71 180 182 0
184 -72 -183 0
184 72 183 0
-184 -72 183 0
-184 72 -183 0
185 -72 -183 0
-185 183 0
-185 72 0
186 -183 0
186 -185 0
186 -72 0
-186 72 183 185 0
187 -73 -186 0
187 73 186 0
-187 -73 186 0
-187 73 -186 0
188 -73 -186 0
-188 186 0
-188 73 0
189 -186 0
189 -188 0
189 -73 0
-189 73 186 188 0
190 -74 -189 0
190 74 189 0
-190 -74 189 0
-190 74 -189 0
191 -74 -189 0
-191 189 0
-191 74 0
192 -189 0
192 -191 0
192 -74 0
-192 74 189 191 0
193 -75 -192 0
193 75 192 0
-193 -75 192 0
-193 75 -192 0
194 -75 -192 0
-194 192 0
-194 75 0
195 -192 0
195 -194 0
195 -75 0
-195 75 192 194 0
196 -76 -195 0
196 76 195 0
-196 -76 195 0
-196 76 -195 0
197 -76 -195 0
-197 195 0
-197 76 0
198 -195 0
198 -197 0
198 -76 0
-198 76 195 197 0
199 -77 -198 0
199 77 198 0
-199 -77 198 0
-199 77 -198 0
200 -77 -198 0
-200 198 0
-200 77 0
201 -198 0
201 -200 0
201 -77 0
-201 77 198 200 0
202 -78 -201 0
202 78 201 0
-202 -78 201 0
-202 78 -201 0
203 -78 -201 0
-203 201 0
-203 78 0
204 -201 0
204 -203 0
204 -78 0
-204 78 201 203 0
205 -79 -204 0
205 79 204 0
-205 -79 204 0
-205 79 -204 0
206 -79 -204 0
-206 204 0
-206 79 0
207 -204 0
207 -206 0
207 -79 0
-207 79 204 206 0
208 -80 -207 0
208 80 207 0
-208 -80 207 0
-208 80 -207 0
209 -80 -207 0
-209 207 0
-209 80 0
210 -207 0
210 -209 0
210 -80 0
-210 80 207 209 0
211 -65 0
-211 65 0
212 166 -211 0
-212 211 0
-212 -166 0
213 -212 0
-213 212 0
214 169 -213 0
-214 213 0
-214 -169 0
215 -214 0
-215 214 0
216 172 -215 0
-216 215 0
-216 -172 0
217 -216 0
-217 216 0
218 175 -217 0
-218 217 0
-218 -175 0
219 -218 0
-219 218 0
220 178 -219 0
-220 219 0
-220 -178 0
221 -220 0
-221 220 0
222 181 -221 0
-222 221 0
-222 -181 0
223 -222 0
-223 222 0
224 184 -223 0
-224 223 0
-224 -184 0
225 -224 0
-225 224 0
226 187 -225 0
-226 225 0
-226 -187 0
227 -226 0
-227 226 0
228 190 -227 0
-228 227 0
-228 -190 0
229 -228 0
-229 228 0
230 193 -229 0
-230 229 0
-230 -193 0
231 -230 0
-231 230 0
232 196 -231 0
-232 231 0
-232 -196 0
233 -232 0
-233 232 0
234 199 -233 0
-234 233 0
-234 -199 0
235 -234 0
-235 234 0
236 202 -235 0
-236 235 0
-236 -202 0
237 -236 0
-237 236 0
238 205 -237 0
-238 237 0
-238 -205 0
239 -238 0
-239 238 0
240 208 -239 0
-240 239 0
-240 -208 0
241 -240 0
-241 240 0
242 -208 -241 0
242 208 241 0
-242 -208 241 0
-242 208 -241 0
244 0
-244 -242 -243 0
245 -115 0
-245 115 0
246 -116 -245 0
246 116 245 0
-246 -116 245 0
-246 116 -245 0
247 -116 -245 0
-247 245 0
-247 116 0
248 -245 0
248 -247 0
248 -116 0
-248 116 245 247 0
249 -117 -248 0
249 117 248 0
-249 -117 248 0
-249 117 -248 0
250 -117 -248 0
-250 248 0
-250 117 0
251 -248 0
251 -250 0
251 -117 0
-251 117 248 250 0
252 -118 -251 0
252 118 251 0
-252 -118 251 0
-252 118 -251 0
253 -118 -251 0
-253 251 0
-253 118 0
254 -251 0
254 -253 0
254 -118 0
-254 118 251 253 0
255 -119 -254 0
255 119 254 0
-255 -119 254 0
-255 119 -254 0
256 -119 -254 0
-256 254 0
-256 119 0
257 -254 0
257 -256 0
257 -119 0
-257 119 254 256 0
258 -120 -257 0
258 120 257 0
-258 -120 257 0
-258 120 -257 0
259 -120 -257 0
-259 257 0
-259 120 0
260 -257 0
260 -259 0
260 -120 0
-260 120 257 259 0
261 -121 -260 0
261 121 260 0
-261 -121 260 0
-261 121 -260 0
262 -121 -260 0
-262 260 0
-262 121 0
263 -260 0
263 -262 0
263 -121 0
-263 121 260 262 0
264 -122 -263 0
264 122 263 0
-264 -122 263 0
-264 122 -263 0
265 -122 -263 0
-265 263 0
-265 122 0
266 -263 0
266 -265 0
266 -122 0
-266 122 263 265 0
267 -123 -266 0
267 123 266 0
-267 -123 266 0
-267 123 -266 0
268 -123 -266 0
-268 266 0
-268 123 0
269 -266 0
269 -268 0
269 -123 0
-269 123 266 268 0
270 -124 -269 0
270 124 269 0
-270 -124 269 0
-270 124 -269 0
271 -124 -269 0
-271 269 0
-271 124 0
272 -269 0
272 -271 0
272 -124 0
-272 124 269 271 0
273 -125 -272 0
273 125 272 0
-273 -125 272 0
-273 125 -272 0
274 -125 -272 0
-274 272 0
-274 125 0
275 -272 0
275 -274 0
275 -125 0
-275 125 272 274 0
276 -126 -275 0
276 126 275 0
-276 -126 275 0
-276 126 -275 0
277 -126 -275 0
-277 275 0
-277 126 0
278 -275 0
278 -277 0
278 -126 0
-278 126 275 277 0
279 -127 -278 0
279 127 278 0
-279 -127 278 0
-279 127 -278 0
280 -127 -278 0
-280 278 0
-280 127 0
281 -278 0
281 -280 0
281 -127 0
-281 127 278 280 0
282 -128 -281 0
282 128 281 0
-282 -128 281 0
-282 128 -281 0
283 -128 -281 0
-283 281 0
-283 128 0
284 -281 0
284 -283 0
284 -128 0
-284 128 281 283 0
285 -129 -284 0
285 129 284 0
-285 -129 284 0
-285 129 -284 0
286 -129 -284 0
-286 284 0
-286 129 0
287 -284 0
287 -286 0
287 -129 0
-287 129 284 286 0
288 -130 -287 0
288 130 287 0
-288 -130 287 0
-288 130 -287 0
289 -130 -287 0
-289 287 0
-289 130 0
290 -287 0
290 -289 0
290 -130 0
-290 130 287 289 0
291 -115 0
-291 115 0
292 246 -291 0
-292 291 0
-292 -246 0
293 -292 0
-293 292 0
294 249 -293 0
-294 293 0
-294 -249 0
295 -294 0
-295 294 0
296 252 -295 0
-296 295 0
-296 -252 0
297 -296 0
-297 296 0
298 255 -297 0
-298 297 0
-298 -255 0
299 -298 0
-299 298 0
300 258 -299 0
-300 299 0
-300 -258 0
301 -300 0
-301 300 0
302 261 -301 0
-302 301 0
-302 -261 0
303 -302 0
-303 302 0
304 264 -303 0
-304 303 0
-304 -264 0
305 -304 0
-305 304 0
306 267 -305 0
-306 305 0
-306 -267 0
307 -306 0
-307 306 0
308 270 -307 0
-308 307 0
-308 -270 0
309 -308 0
-309 308 0
310 273 -309 0
-310 309 0
-310 -273 0
311 -310 0
-311 310 0
312 276 -311 0
-312 311 0
-312 -276 0
313 -312 0
-313 312 0
314 279 -313 0
-314 313 0
-314 -279 0
315 -314 0
-315 314 0
316 282 -315 0
-316 315 0
-316 -282 0
317 -316 0
-317 316 0
318 285 -317 0
-318 317 0
-318 -285 0
319 -318 0
-319 318 0
320 288 -319 0
-320 319 0
-320 -288 0
321 -320 0
-321 320 0
322 -288 -321 0
322 288 321 0
-322 -288 321 0
-322 288 -321 0
324 0
-324 -322 -323 0
325 1 -65 0
325 -1 65 0
-325 1 65 0
-325 -1 -65 0
326 2 -66 0
326 -2 66 0
-326 2 66 0
-326 -2 -66 0
327 3 -67 0
327 -3 67 0
-327 3 67 0
-327 -3 -67 0
328 4 -68 0
328 -4 68 0
-328 4 68 0
-328 -4 -68 0
329 5 -69 0
329 -5 69 0
-329 5 69 0
-329 -5 -69 0
330 6 -70 0
330 -6 70 0
-330 6 70 0
-330 -6 -70 0
331 7 -71 0
331 -7 71 0
-331 7 71 0
-331 -7 -71 0
332 8 -72 0
332 -8 72 0
-332 8 72 0
-332 -8 -72 0
333 9 -73 0
333 -9 73 0
-333 9 73 0
-333 -9 -73 0
334 10 -74 0
334 -10 74 0
-334 10 74 0
-334 -10 -74 0
335 11 -75 0
335 -11 75 0
-335 11 75 0
-335 -11 -75 0
336 12 -76 0
336 -12 76 0
-336 12 76 0
-336 -12 -76 0
337 13 -77 0
337 -13 77 0
-337 13 77 0
-337 -13 -77 0
338 14 -78 0
338 -14 78 0
-338 14 78 0
-338 -14 -78 0
339 15 -79 0
339 -15 79 0
-339 15 79 0
-339 -15 -79 0
340 16 -80 0
340 -16 80 0
-340 16 80 0
-340 -16 -80 0
341 325 326 327 328 329 330 331 332 333 334 335 336 337 338 339 340 0
-341 -340 0
-341 -339 0
-341 -338 0
-341 -337 0
-341 -336 0
-341 -335 0
-341 -334 0
-341 -333 0
-341 -332 0
-341 -331 0
-341 -330 0
-341 -329 0
-341 -328 0
-341 -327 0
-341 -326 0
-341 -325 0
342 33 65 0
342 -33 -65 0
-342 33 -65 0
-342 -33 65 0
343 34 -166 0
343 -34 166 0
-343 34 166 0
-343 -34 -166 0
344 35 -169 0
344 -35 169 0
-344 35 169 0
-344 -35 -169 0
345 36 -172 0
345 -36 172 0
-345 36 172 0
-345 -36 -172 0
346 37 -175 0
346 -37 175 0
-346 37 175 0
-346 -37 -175 0
347 38 -178 0
347 -38 178 0
-347 38 178 0
-347 -38 -178 0
348 39 -181 0
348 -39 181 0
-348 39 181 0
-348 -39 -181 0
349 40 -184 0
349 -40 184 0
-349 40 184 0
-349 -40 -184 0
350 41 -187 0
350 -41 187 0
-350 41 187 0
-350 -41 -187 0
351 42 -190 0
351 -42 190 0
-351 42 190 0
-351 -42 -190 0
352 43 -193 0
352 -43 193 0
-352 43 193 0
-352 -43 -193 0
353 44 -196 0
353 -44 196 0
-353 44 196 0
-353 -44 -196 0
354 45 -199 0
354 -45 199 0
-354 45 199 0
-354 -45 -199 0
355 46 -202 0
355 -46 202 0
-355 46 202 0
-355 -46 -202 0
356 47 -205 0
356 -47 205 0
-356 47 205 0
-356 -47 -205 0
357 48 -208 0
357 -48 208 0
-357 48 208 0
-357 -48 -208 0
358 342 343 344 345 346 347 348 349 350 351 352 353 354 355 356 357 0
-358 -357 0
-358 -356 0
-358 -355 0
-358 -354 0
-358 -353 0
-358 -352 0
-358 -351 0
-358 -350 0
-358 -349 0
-358 -348 0
-358 -347 0
-358 -346 0
-358 -345 0
-358 -344 0
-358 -343 0
-358 -342 0
359 17 -115 0
359 -17 115 0
-359 17 115 0
-359 -17 -115 0
360 18 -116 0
360 -18 116 0
-360 18 116 0
-360 -18 -116 0
361 19 -117 0
361 -19 117 0
-361 19 117 0
-361 -19 -117 0
362 20 -118 0
362 -20 118 0
-362 20 118 0
-362 -20 -118 0
363 21 -119 0
363 -21 119 0
-363 21 119 0
-363 -21 -119 0
364 22 -120 0
364 -22 120 0
-364 22 120 0
-364 -22 -120 0
365 23 -121 0
365 -23 121 0
-365 23 121 0
-365 -23 -121 0
366 24 -122 0
366 -24 122 0
-366 24 122 0
-366 -24 -122 0
367 25 -123 0
367 -25 123 0
-367 25 123 0
-367 -25 -123 0
368 26 -124 0
368 -26 124 0
-368 26 124 0
-368 -26 -124 0
369 27 -125 0
369 -27 125 0
-369 27 125 0
-369 -27 -125 0
370 28 -126 0
370 -28 126 0
-370 28 126 0
-370 -28 -126 0
371 29 -127 0
371 -29 127 0
-371 29 127 0
-371 -29 -127 0
372 30 -128 0
372 -30 128 0
-372 30 128 0
-372 -30 -128 0
373 31 -129 0
373 -31 129 0
-373 31 129 0
-373 -31 -129 0
374 32 -130 0
374 -32 130 0
-374 32 130 0
-374 -32 -130 0
375 359 360 361 362 363 364 365 366 367 368 369 370 371 372 373 374 0
-375 -374 0
-375 -373 0
-375 -372 0
-375 -371 0
-375 -370 0
-375 -369 0
-375 -368 0
-375 -367 0
-375 -366 0
-375 -365 0
-375 -364 0
-375 -363 0
-375 -362 0
-375 -361 0
-375 -360 0
-375 -359 0
376 49 115 0
376 -49 -115 0
-376 49 -115 0
-376 -49 115 0
377 50 -246 0
377 -50 246 0
-377 50 246 0
-377 -50 -246 0
378 51 -249 0
378 -51 249 0
-378 51 249 0
-378 -51 -249 0
379 52 -252 0
379 -52 252 0
-379 52 252 0
-379 -52 -252 0
380 53 -255 0
380 -53 255 0
-380 53 255 0
-380 -53 -255 0
381 54 -258 0
381 -54 258 0
-381 54 258 0
-381 -54 -258 0
382 55 -261 0
382 -55 261 0
-382 55 261 0
-382 -55 -261 0
383 56 -264 0
383 -56 264 0
-383 56 264 0
-383 -56 -264 0
384 57 -267 0
384 -57 267 0
-384 57 267 0
-384 -57 -267 0
385 58 -270 0
385 -58 270 0
-385 58 270 0
-385 -58 -270 0
386 59 -273 0
386 -59 273 0
-386 59 273 0
-386 -59 -273 0
387 60 -276 0
387 -60 276 0
-387 60 276 0
-387 -60 -276 0
388 61 -279 0
388 -61 279 0
-388 61 279 0
-388 -61 -279 0
389 62 -282 0
389 -62 282 0
-389 62 282 0
-389 -62 -282 0
390 63 -285 0
390 -63 285 0
-390 63 285 0
-390 -63 -285 0
391 64 -288 0
391 -64 288 0
-391 64 288 0
-391 -64 -288 0
392 376 377 378 379 380 381 382 383 384 385 386 387 388 389 390 391 0
-392 -391 0
-392 -390 0
-392 -389 0
-392 -388 0
-392 -387 0
-392 -386 0
-392 -385 0
-392 -384 0
-392 -383 0
-392 -382 0
-392 -381 0
-392 -380 0
-392 -379 0
-392 -378 0
-392 -377 0
-392 -376 0
393 -112 -162 -242 -322 -341 -358 -375 -392 0
-393 392 0
-393 375 0
-393 358 0
-393 341 0
-393 322 0
-393 242 0
-393 162 0
-393 112 0
426 394 -410 0
-426 -394 0
-426 410 0
427 394 0
427 -410 0
427 -426 0
-427 -394 410 426 0
428 395 -411 0
-428 -395 0
-428 411 0
429 -411 -427 0
-429 427 0
-429 411 0
430 395 -427 0
-430 427 0
-430 -395 0
431 -430 0
431 -429 0
431 -428 0
-431 428 429 430 0
432 396 -412 0
-432 -396 0
-432 412 0
433 -412 -431 0
-433 431 0
-433 412 0
434 396 -431 0
-434 431 0
-434 -396 0
435 -434 0
435 -433 0
435 -432 0
-435 432 433 434 0
436 397 -413 0
-436 -397 0
-436 413 0
437 -413 -435 0
-437 435 0
-437 413 0
438 397 -435 0
-438 435 0
-438 -397 0
439 -438 0
439 -437 0
439 -436 0
-439 436 437 438 0
440 398 -414 0
-440 -398 0
-440 414 0
441 -414 -439 0
-441 439 0
-441 414 0
442 398 -439 0
-442 439 0
-442 -398 0
443 -442 0
443 -441 0
443 -440 0
-443 440 441 442 0
444 399 -415 0
-444 -399 0
-444 415 0
445 -415 -443 0
-445 443 0
-445 415 0
446 399 -443 0
-446 443 0
-446 -399 0
447 -446 0
447 -445 0
447 -444 0
-447 444 445 446 0
448 400 -416 0
-448 -400 0
-448 416 0
449 -416 -447 0
-449 447 0
-449 416 0
450 400 -447 0
-450 447 0
-450 -400 0
451 -450 0
451 -449 0
451 -448 0
-451 448 449 450 0
452 401 -417 0
-452 -401 0
-452 417 0
453 -417 -451 0
-453 451 0
-453 417 0
454 401 -451 0
-454 451 0
-454 -401 0
455 -454 0
455 -453 0
455 -452 0
-455 452 453 454 0
456 402 -418 0
-456 -402 0
-456 418 0
457 -418 -455 0
-457 455 0
-457 418 0
458 402 -455 0
-458 455 0
-458 -402 0
459 -458 0
459 -457 0
459 -456 0
-459 456 457 458 0
460 403 -419 0
-460 -403 0
-460 419 0
461 -419 -459 0
-461 459 0
-461 419 0
462 403 -459 0
-462 459 0
-462 -403 0
463 -462 0
463 -461 0
463 -460 0
-463 460 461 462 0
464 404 -420 0
-464 -404 0
-464 420 0
465 -420 -463 0
-465 463 0
-465 420 0
466 404 -463 0
-466 463 0
-466 -404 0
467 -466 0
467 -465 0
467 -464 0
-467 464 465 466 0
468 405 -421 0
-468 -405 0
-468 421 0
469 -421 -467 0
-469 467 0
-469 421 0
470 405 -467 0
-470 467 0
-470 -405 0
471 -470 0
471 -469 0
471 -468 0
-471 468 469 470 0
472 406 -422 0
-472 -406 0
-472 422 0
473 -422 -471 0
-473 471 0
-473 422 0
474 406 -471 0
-474 471 0
-474 -406 0
475 -474 0
475 -473 0
475 -472 0
-475 472 473 474 0
476 407 -423 0
-476 -407 0
-476 423 0
477 -423 -475 0
-477 475 0
-477 423 0
478 407 -475 0
-478 475 0
-478 -407 0
479 -478 0
479 -477 0
479 -476 0
-479 476 477 478 0
480 408 -424 0
-480 -408 0
-480 424 0
481 -424 -479 0
-481 479 0
-481 424 0
482 408 -479 0
-482 479 0
-482 -408 0
483 -482 0
483 -481 0
483 -480 0
-483 480 481 482 0
484 409 -425 0
-484 -409 0
-484 425 0
485 -425 -483 0
-485 483 0
-485 425 0
486 409 -483 0
-486 483 0
-486 -409 0
487 -486 0
487 -485 0
487 -484 0
-487 484 485 486 0
488 -409 425 0
488 409 -425 0
-488 409 425 0
-488 -409 -425 0
489 -487 -488 0
489 487 488 0
-489 487 -488 0
-489 -487 488 0
491 0
-491 -489 -490 0
524 492 -508 0
-524 -492 0
-524 508 0
525 492 0
525 -508 0
525 -524 0
-525 -492 508 524 0
526 493 -509 0
-526 -493 0
-526 509 0
527 -509 -525 0
-527 525 0
-527 509 0
528 493 -525 0
-528 525 0
-528 -493 0
529 -528 0
529 -527 0
529 -526 0
-529 526 527 528 0
530 494 -510 0
-530 -494 0
-530 510 0
531 -510 -529 0
-531 529 0
-531 510 0
532 494 -529 0
-532 529 0
-532 -494 0
533 -532 0
533 -531 0
533 -530 0
-533 530 531 532 0
534 495 -511 0
-534 -495 0
-534 511 0
535 -511 -533 0
-535 533 0
-535 511 0
536 495 -533 0
-536 533 0
-536 -495 0
537 -536 0
537 -535 0
537 -534 0
-537 534 535 536 0
538 496 -512 0
-538 -496 0
-538 512 0
539 -512 -537 0
-539 537 0
-539 512 0
540 496 -537 0
-540 537 0
-540 -496 0
541 -540 0
541 -539 0
541 -538 0
-541 538 539 540 0
542 497 -513 0
-542 -497 0
-542 513 0
543 -513 -541 0
-543 541 0
-543 513 0
544 497 -541 0
-544 541 0
-544 -497 0
545 -544 0
545 -543 0
545 -542 0
-545 542 543 544 0
546 498 -514 0
-546 -498 0
-546 514 0
547 -514 -545 0
-547 545 0
-547 514 0
548 498 -545 0
-548 545 0
-548 -498 0
549 -548 0
549 -547 0
549 -546 0
-549 546 547 548 0
550 499 -515 0
-550 -499 0
-550 515 0
551 -515 -549 0
-551 549 0
-551 515 0
552 499 -549 0
-552 549 0
-552 -499 0
553 -552 0
553 -551 0
553 -550 0
-553 550 551 552 0
554 500 -516 0
-554 -500 0
-554 516 0
555 -516 -553 0
-555 553 0
-555 516 0
556 500 -553 0
-556 553 0
-556 -500 0
557 -556 0
557 -555 0
557 -554 0
-557 554 555 556 0
558 501 -517 0
-558 -501 0
-558 517 0
559 -517 -557 0
-559 557 0
-559 517 0
560 501 -557 0
-560 557 0
-560 -501 0
561 -560 0
561 -559 0
561 -558 0
-561 558 559 560 0
562 502 -518 0
-562 -502 0
-562 518 0
563 -518 -561 0
-563 561 0
-563 518 0
564 502 -561 0
-564 561 0
-564 -502 0
565 -564 0
565 -563 0
565 -562 0
-565 562 563 564 0
566 503 -519 0
-566 -503 0
-566 519 0
567 -519 -565 0
-567 565 0
-567 519 0
568 503 -565 0
-568 565 0
-568 -503 0
569 -568 0
569 -567 0
569 -566 0
-569 566 567 568 0
570 504 -520 0
-570 -504 0
-570 520 0
571 -520 -569 0
-571 569 0
-571 520 0
572 504 -569 0
-572 569 0
-572 -504 0
573 -572 0
573 -571 0
573 -570 0
-573 570 571 572 0
574 505 -521 0
-574 -505 0
-574 521 0
575 -521 -573 0
-575 573 0
-575 521 0
576 505 -573 0
-576 573 0
-576 -505 0
577 -576 0
577 -575 0
577 -574 0
-577 574 575 576 0
578 506 -522 0
-578 -506 0
-578 522 0
579 -522 -577 0
-579 577 0
-579 522 0
580 506 -577 0
-580 577 0
-580 -506 0
581 -580 0
581 -579 0
581 -578 0
-581 578 579 580 0
582 507 -523 0
-582 -507 0
-582 523 0
583 -523 -581 0
-583 581 0
-583 523 0
584 507 -581 0
-584 581 0
-584 -507 0
585 -584 0
585 -583 0
585 -582 0
-585 582 583 584 0
586 -507 523 0
586 507 -523 0
-586 507 523 0
-586 -507 -523 0
587 -585 -586 0
587 585 586 0
-587 585 -586 0
-587 -585 586 0
589 0
-589 -587 -588 0
590 -393 0
590 -489 -587 0
-590 587 0
-590 489 0
591 1 -33 0
591 -1 33 0
-591 1 33 0
-591 -1 -33 0
592 2 -34 0
592 -2 34 0
-592 2 34 0
-592 -2 -34 0
593 3 -35 0
593 -3 35 0
-593 3 35 0
-593 -3 -35 0
594 4 -36 0
594 -4 36 0
-594 4 36 0
-594 -4 -36 0
595 5 -37 0
595 -5 37 0
-595 5 37 0
-595 -5 -37 0
596 6 -38 0
596 -6 38 0
-596 6 38 0
-596 -6 -38 0
597 7 -39 0
597 -7 39 0
-597 7 39 0
-597 -7 -39 0
598 8 -40 0
598 -8 40 0
-598 8 40 0
-598 -8 -40 0
599 9 -41 0
599 -9 41 0
-599 9 41 0
-599 -9 -41 0
600 10 -42 0
600 -10 42 0
-600 10 42 0
-600 -10 -42 0
601 11 -43 0
601 -11 43 0
-601 11 43 0
-601 -11 -43 0
602 12 -44 0
602 -12 44 0
-602 12 44 0
-602 -12 -44 0
603 13 -45 0
603 -13 45 0
-603 13 45 0
-603 -13 -45 0
604 14 -46 0
604 -14 46 0
-604 14 46 0
-604 -14 -46 0
605 15 -47 0
605 -15 47 0
-605 15 47 0
-605 -15 -47 0
606 16 -48 0
606 -16 48 0
-606 16 48 0
-606 -16 -48 0
607 591 592 593 594 595 596 597 598 599 600 601 602 603 604 605 606 0
-607 -606 0
-607 -605 0
-607 -604 0
-607 -603 0
-607 -602 0
-607 -601 0
-607 -600 0
-607 -599 0
-607 -598 0
-607 -597 0
-607 -596 0
-607 -595 0
-607 -594 0
-607 -593 0
-607 -592 0
-607 -591 0
608 394 -410 0
608 -394 410 0
-608 394 410 0
-608 -394 -410 0
609 395 -411 0
609 -395 411 0
-609 395 411 0
-609 -395 -411 0
610 396 -412 0
610 -396 412 0
-610 396 412 0
-610 -396 -412 0
611 397 -413 0
611 -397 413 0
-611 397 413 0
-611 -397 -413 0
612 398 -414 0
612 -398 414 0
-612 398 414 0
-612 -398 -414 0
613 399 -415 0
613 -399 415 0
-613 399 415 0
-613 -399 -415 0
614 400 -416 0
614 -400 416 0
-614 400 416 0
-614 -400 -416 0
615 401 -417 0
615 -401 417 0
-615 401 417 0
-615 -401 -417 0
616 402 -418 0
616 -402 418 0
-616 402 418 0
-616 -402 -418 0
617 403 -419 0
617 -403 419 0
-617 403 419 0
-617 -403 -419 0
618 404 -420 0
618 -404 420 0
-618 404 420 0
-618 -404 -420 0
619 405 -421 0
619 -405 421 0
-619 405 421 0
-619 -405 -421 0
620 406 -422 0
620 -406 422 0
-620 406 422 0
-620 -406 -422 0
621 407 -423 0
621 -407 423 0
-621 407 423 0
-621 -407 -423 0
622 408 -424 0
622 -408 424 0
-622 408 424 0
-622 -408 -424 0
623 409 -425 0
623 -409 425 0
-623 409 425 0
-623 -409 -425 0
624 -607 0
624 608 609 610 611 612 613 614 615 616 617 618 619 620 621 622 623 0
-624 -623 0
-624 -622 0
-624 -621 0
-624 -620 0
-624 -619 0
-624 -618 0
-624 -617 0
-624 -616 0
-624 -615 0
-624 -614 0
-624 -613 0
-624 -612 0
-624 -611 0
-624 -610 0
-624 -609 0
-624 -608 0
625 17 -49 0
625 -17 49 0
-625 17 49 0
-625 -17 -49 0
626 18 -50 0
626 -18 50 0
-626 18 50 0
-626 -18 -50 0
627 19 -51 0
627 -19 51 0
-627 19 51 0
-627 -19 -51 0
628 20 -52 0
628 -20 52 0
-628 20 52 0
-628 -20 -52 0
629 21 -53 0
629 -21 53 0
-629 21 53 0
-629 -21 -53 0
630 22 -54 0
630 -22 54 0
-630 22 54 0
-630 -22 -54 0
631 23 -55 0
631 -23 55 0
-631 23 55 0
-631 -23 -55 0
632 24 -56 0
632 -24 56 0
-632 24 56 0
-632 -24 -56 0
633 25 -57 0
633 -25 57 0
-633 25 57 0
-633 -25 -57 0
634 26 -58 0
634 -26 58 0
-634 26 58 0
-634 -26 -58 0
635 27 -59 0
635 -27 59 0
-635 27 59 0
-635 -27 -59 0
636 28 -60 0
636 -28 60 0
-636 28 60 0
-636 -28 -60 0
637 29 -61 0
637 -29 61 0
-637 29 61 0
-637 -29 -61 0
638 30 -62 0
638 -30 62 0
-638 30 62 0
-638 -30 -62 0
639 31 -63 0
639 -31 63 0
-639 31 63 0
-639 -31 -63 0
640 32 -64 0
640 -32 64 0
-640 32 64 0
-640 -32 -64 0
641 625 626 627 628 629 630 631 632 633 634 635 636 637 638 639 640 0
-641 -640 0
-641 -639 0
-641 -638 0
-641 -637 0
-641 -636 0
-641 -635 0
-641 -634 0
-641 -633 0
-641 -632 0
-641 -631 0
-641 -630 0
-641 -629 0
-641 -628 0
-641 -627 0
-641 -626 0
-641 -625 0
642 492 -508 0
642 -492 508 0
-642 492 508 0
-642 -492 -508 0
643 493 -509 0
643 -493 509 0
-643 493 509 0
-643 -493 -509 0
644 494 -510 0
644 -494 510 0
-644 494 510 0
-644 -494 -510 0
645 495 -511 0
645 -495 511 0
-645 495 511 0
-645 -495 -511 0
646 496 -512 0
646 -496 512 0
-646 496 512 0
-646 -496 -512 0
647 497 -513 0
647 -497 513 0
-647 497 513 0
-647 -497 -513 0
648 498 -514 0
648 -498 514 0
-648 498 514 0
-648 -498 -514 0
649 499 -515 0
649 -499 515 0
-649 499 515 0
-649 -499 -515 0
650 500 -516 0
650 -500 516 0
-650 500 516 0
-650 -500 -516 0
651 501 -517 0
651 -501 517 0
-651 501 517 0
-651 -501 -517 0
652 502 -518 0
652 -502 518 0
-652 502 518 0
-652 -502 -518 0
653 503 -519 0
653 -503 519 0
-653 503 519 0
-653 -503 -519 0
654 504 -520 0
654 -504 520 0
-654 504 520 0
-654 -504 -520 0
655 505 -521 0
655 -505 521 0
-655 505 521 0
-655 -505 -521 0
656 506 -522 0
656 -506 522 0
-656 506 522 0
-656 -506 -522 0
657 507 -523 0
657 -507 523 0
-657 507 523 0
-657 -507 -523 0
658 -641 0
658 642 643 644 645 646 647 648 649 650 651 652 653 654 655 656 657 0
-658 -657 0
-658 -656 0
-658 -655 0
-658 -654 0
-658 -653 0
-658 -652 0
-658 -651 0
-658 -650 0
-658 -649 0
-658 -648 0
-658 -647 0
-658 -646 0
-658 -645 0
-658 -644 0
-658 -643 0
-658 -642 0
